DATASET = "thpack3";
INSTANCE = "093";

WIDTH = 233;
HEIGHT = 220;
LENGTH = 587;

NO_OF_SHAPES = 8;
size = [|
  78,69,37 |
  115,90,58 |
  68,53,20 |
  119,71,47 |
  100,82,57 |
  88,76,52 |
  95,90,43 |
  87,72,62 |
|];

verticality = [|
  0,1,1 |
  1,1,1 |
  0,0,1 |
  0,1,1 |
  1,1,1 |
  1,1,1 |
  0,0,1 |
  1,1,1 |
|];

box_count = [
  9,
  9,
  10,
  9,
  11,
  14,
  10,
  12,
];
